(set-info :origin "Horn problem converted to SMT-LIB2 using Eldarica (https://github.com/uuverifiers/eldarica)")
(set-logic HORN)
(declare-fun INV_MAIN_0 (Int Int Int Int Int Int) Bool)
(assert (forall ((A Int) (B Int) (C Int) (D Int) (E Int) (F Int))(=> (and (and (not (and (= E B) (not (= F C)))) (not (= A 0))) (= D A)) (INV_MAIN_0 A B C D E F))))
(assert (forall ((A Int) (B Int) (C Int) (D Int) (E Int) (F Int))(=> (and (and (and (and (not (and (= B (- 9)) (or (= C 0) (and (= E (- 9)) (not (= F C)))))) (not (and (= E B) (not (= F C))))) (not (and (= F 0) (= E (- 9))))) (not (= A 0))) (= D A)) (INV_MAIN_0 A B C D E F))))
(assert (forall ((A Int) (B Int) (C Int) (D Int) (E Int) (F Int)) (not (and (and (and (and (and (INV_MAIN_0 A B C D E F) (not (<= A 0))) (not (<= F (- 1)))) (not (>= (+ F (+ D (- (* (- 1) C) A))) 0))) (= B (- 9))) (= E (- 9))))))
(assert (forall ((A Int) (B Int) (C Int) (D Int) (E Int) (F Int)) (not (and (and (and (and (and (INV_MAIN_0 A B C D E F) (not (<= A 0))) (not (>= F (- 1)))) (not (>= (+ F (+ D (- (* (- 1) C) A))) 0))) (= B (- 9))) (= E (- 9))))))
(assert (forall ((A Int) (B Int) (C Int) (D Int) (E Int) (F Int)) (not (and (and (and (and (and (INV_MAIN_0 A B C D E F) (not (<= A 0))) (not (<= F (- 1)))) (not (<= F (- (+ C A) D)))) (= B (- 9))) (= E (- 9))))))
(assert (forall ((A Int) (B Int) (C Int) (D Int) (E Int) (F Int)) (not (and (and (and (and (and (INV_MAIN_0 A B C D E F) (not (<= A 0))) (not (<= F (- (+ C A) D)))) (not (>= F (- 1)))) (= B (- 9))) (= E (- 9))))))
(assert (forall ((A Int) (B Int) (C Int) (D Int) (E Int) (F Int)) (not (and (and (and (and (and (INV_MAIN_0 A B C D E F) (not (<= A 0))) (not (>= F C))) (not (>= (+ F (+ D (- (* (- 1) C) A))) 0))) (= B (- 9))) (= E (- 9))))))
(assert (forall ((A Int) (B Int) (C Int) (D Int) (E Int) (F Int)) (not (and (and (and (and (and (INV_MAIN_0 A B C D E F) (not (<= A 0))) (not (<= F C))) (not (>= (+ F (+ D (- (* (- 1) C) A))) 0))) (= B (- 9))) (= E (- 9))))))
(assert (forall ((A Int) (B Int) (C Int) (D Int) (E Int) (F Int)) (not (and (and (and (and (and (INV_MAIN_0 A B C D E F) (not (<= A 0))) (not (<= F (- (+ C A) D)))) (not (>= F C))) (= B (- 9))) (= E (- 9))))))
(assert (forall ((A Int) (B Int) (C Int) (D Int) (E Int) (F Int)) (not (and (and (and (and (and (INV_MAIN_0 A B C D E F) (not (<= A 0))) (not (<= F C))) (not (<= F (- (+ C A) D)))) (= B (- 9))) (= E (- 9))))))
(assert (forall ((A Int) (B Int) (C Int) (D Int) (E Int) (F Int)) (not (and (and (and (and (and (INV_MAIN_0 A B C D E F) (not (<= A 0))) (not (<= C (- 1)))) (not (<= F (- (+ C A) D)))) (= B (- 9))) (= E (- 9))))))
(assert (forall ((A Int) (B Int) (C Int) (D Int) (E Int) (F Int)) (not (and (and (and (and (and (INV_MAIN_0 A B C D E F) (not (<= A 0))) (not (>= C (- 1)))) (not (<= F (- (+ C A) D)))) (= B (- 9))) (= E (- 9))))))
(assert (forall ((A Int) (B Int) (C Int) (D Int) (E Int) (F Int)) (not (and (and (and (and (and (INV_MAIN_0 A B C D E F) (not (<= A 0))) (not (<= C (- 1)))) (not (>= (+ F (+ D (- (* (- 1) C) A))) 0))) (= B (- 9))) (= E (- 9))))))
(assert (forall ((A Int) (B Int) (C Int) (D Int) (E Int) (F Int)) (not (and (and (and (and (and (INV_MAIN_0 A B C D E F) (not (<= A 0))) (not (>= C (- 1)))) (not (>= (+ F (+ D (- (* (- 1) C) A))) 0))) (= B (- 9))) (= E (- 9))))))
(assert (forall ((A Int) (B Int) (C Int) (D Int) (E Int) (F Int)) (not (and (and (and (and (INV_MAIN_0 A B C D E F) (not (<= A 0))) (not (>= (+ F (+ D (- (* (- 1) C) A))) 0))) (= B (- 9))) (= E (- 9))))))
(assert (forall ((A Int) (B Int) (C Int) (D Int) (E Int) (F Int)) (not (and (and (and (and (INV_MAIN_0 A B C D E F) (not (<= A 0))) (not (<= F (- (+ C A) D)))) (= B (- 9))) (= E (- 9))))))
(assert (forall ((A Int) (B Int) (C Int) (D Int) (E Int) (F Int) (G Int) (H Int) (I Int) (J Int) (K Int) (L Int) (M Int) (N Int) (O Int) (P Int) (Q Int) (R Int) (S Int) (T Int) (U Int) (V Int) (W Int) (X Int)) (not (and (and (and (and (and (and (and (and (and (and (and (and (and (and (and (and (and (and (and (and (and (and (and (and (and (INV_MAIN_0 A B C D E F) (INV_MAIN_0 G H I J K L)) (INV_MAIN_0 M N O P Q R)) (INV_MAIN_0 S T U V W X)) (not (and (= T (- 9)) (not (= R X))))) (not (and (= T (- 9)) (not (= I U))))) (not (<= S 0))) (not (= X U))) (not (= R (- 1)))) (= W T)) (= M S)) (= N T)) (= O U)) (= P V)) (= Q (- 9))) (= G S)) (= H (- 9))) (= J V)) (= K T)) (= L X)) (= A S)) (= B (- 9))) (= C I)) (= D V)) (= E (- 9))) (= F R)))))
(assert (forall ((A Int) (B Int) (C Int) (D Int) (E Int) (F Int) (G Int) (H Int) (I Int) (J Int) (K Int) (L Int) (M Int) (N Int) (O Int) (P Int) (Q Int) (R Int) (S Int) (T Int) (U Int) (V Int) (W Int) (X Int)) (not (and (and (and (and (and (and (and (and (and (and (and (and (and (and (and (and (and (and (and (and (and (and (and (and (and (INV_MAIN_0 A B C D E F) (INV_MAIN_0 G H I J K L)) (INV_MAIN_0 M N O P Q R)) (INV_MAIN_0 S T U V W X)) (not (and (= T (- 9)) (not (= R X))))) (not (and (= T (- 9)) (not (= I U))))) (not (<= S 0))) (not (= X U))) (not (= I R))) (= W T)) (= M S)) (= N T)) (= O U)) (= P V)) (= Q (- 9))) (= G S)) (= H (- 9))) (= J V)) (= K T)) (= L X)) (= A S)) (= B (- 9))) (= C I)) (= D V)) (= E (- 9))) (= F R)))))
(assert (forall ((A Int) (B Int) (C Int) (D Int) (E Int) (F Int) (G Int) (H Int) (I Int) (J Int) (K Int) (L Int) (M Int) (N Int) (O Int) (P Int) (Q Int) (R Int) (S Int) (T Int) (U Int) (V Int) (W Int) (X Int)) (not (and (and (and (and (and (and (and (and (and (and (and (and (and (and (and (and (and (and (and (and (and (and (and (and (and (INV_MAIN_0 A B C D E F) (INV_MAIN_0 G H I J K L)) (INV_MAIN_0 M N O P Q R)) (INV_MAIN_0 S T U V W X)) (not (and (= T (- 9)) (not (= R X))))) (not (and (= T (- 9)) (not (= I U))))) (not (<= S 0))) (not (= X U))) (not (= I (- 1)))) (= W T)) (= M S)) (= N T)) (= O U)) (= P V)) (= Q (- 9))) (= G S)) (= H (- 9))) (= J V)) (= K T)) (= L X)) (= A S)) (= B (- 9))) (= C I)) (= D V)) (= E (- 9))) (= F R)))))
(assert (forall ((A Int) (B Int) (C Int) (D Int) (E Int) (F Int) (G Int) (H Int) (I Int) (J Int) (K Int) (L Int) (M Int) (N Int) (O Int) (P Int) (Q Int) (R Int) (S Int) (T Int) (U Int) (V Int) (W Int) (X Int)) (not (and (and (and (and (and (and (and (and (and (and (and (and (and (and (and (and (and (and (and (and (and (and (and (and (INV_MAIN_0 A B C D E F) (INV_MAIN_0 G H I J K L)) (INV_MAIN_0 M N O P Q R)) (INV_MAIN_0 S T U V W X)) (not (and (= T (- 9)) (not (= R X))))) (not (and (= T (- 9)) (not (= I U))))) (not (<= S 0))) (not (= X U))) (= W T)) (= M S)) (= N T)) (= O U)) (= P V)) (= Q (- 9))) (= G S)) (= H (- 9))) (= J V)) (= K T)) (= L X)) (= A S)) (= B (- 9))) (= C I)) (= D V)) (= E (- 9))) (= F R)))))
(assert (forall ((A Int) (B Int) (C Int) (D Int) (E Int) (F Int)) (not (and (and (and (and (INV_MAIN_0 A B C D E F) (not (<= A 0))) (not (= F C))) (= B (- 9))) (= E (- 9))))))
(assert (forall ((A Int) (B Int) (C Int) (D Int) (E Int) (F Int)) (not (and (and (and (and (and (INV_MAIN_0 A B C D E F) (not (>= A 1))) (not (<= F (- 1)))) (not (>= (+ F (+ D (- (* (- 1) C) A))) 0))) (= B (- 9))) (= E (- 9))))))
(assert (forall ((A Int) (B Int) (C Int) (D Int) (E Int) (F Int)) (not (and (and (and (and (and (INV_MAIN_0 A B C D E F) (not (>= A 1))) (not (>= F (- 1)))) (not (>= (+ F (+ D (- (* (- 1) C) A))) 0))) (= B (- 9))) (= E (- 9))))))
(assert (forall ((A Int) (B Int) (C Int) (D Int) (E Int) (F Int)) (not (and (and (and (and (and (INV_MAIN_0 A B C D E F) (not (>= A 1))) (not (<= F (- (+ C A) D)))) (not (>= F (- 1)))) (= B (- 9))) (= E (- 9))))))
(assert (forall ((A Int) (B Int) (C Int) (D Int) (E Int) (F Int)) (not (and (and (and (and (and (INV_MAIN_0 A B C D E F) (not (>= A 1))) (not (<= F (- 1)))) (not (<= F (- (+ C A) D)))) (= B (- 9))) (= E (- 9))))))
(assert (forall ((A Int) (B Int) (C Int) (D Int) (E Int) (F Int)) (not (and (and (and (and (and (INV_MAIN_0 A B C D E F) (not (>= A 1))) (not (>= F C))) (not (>= (+ F (+ D (- (* (- 1) C) A))) 0))) (= B (- 9))) (= E (- 9))))))
(assert (forall ((A Int) (B Int) (C Int) (D Int) (E Int) (F Int)) (not (and (and (and (and (and (INV_MAIN_0 A B C D E F) (not (>= A 1))) (not (<= F C))) (not (>= (+ F (+ D (- (* (- 1) C) A))) 0))) (= B (- 9))) (= E (- 9))))))
(assert (forall ((A Int) (B Int) (C Int) (D Int) (E Int) (F Int)) (not (and (and (and (and (and (INV_MAIN_0 A B C D E F) (not (>= A 1))) (not (<= F (- (+ C A) D)))) (not (>= F C))) (= B (- 9))) (= E (- 9))))))
(assert (forall ((A Int) (B Int) (C Int) (D Int) (E Int) (F Int)) (not (and (and (and (and (and (INV_MAIN_0 A B C D E F) (not (>= A 1))) (not (<= F C))) (not (<= F (- (+ C A) D)))) (= B (- 9))) (= E (- 9))))))
(assert (forall ((A Int) (B Int) (C Int) (D Int) (E Int) (F Int)) (not (and (and (and (and (and (INV_MAIN_0 A B C D E F) (not (>= A 1))) (not (>= C (- 1)))) (not (<= F (- (+ C A) D)))) (= B (- 9))) (= E (- 9))))))
(assert (forall ((A Int) (B Int) (C Int) (D Int) (E Int) (F Int)) (not (and (and (and (and (and (INV_MAIN_0 A B C D E F) (not (>= A 1))) (not (<= C (- 1)))) (not (<= F (- (+ C A) D)))) (= B (- 9))) (= E (- 9))))))
(assert (forall ((A Int) (B Int) (C Int) (D Int) (E Int) (F Int)) (not (and (and (and (and (and (INV_MAIN_0 A B C D E F) (not (>= A 1))) (not (<= C (- 1)))) (not (>= (+ F (+ D (- (* (- 1) C) A))) 0))) (= B (- 9))) (= E (- 9))))))
(assert (forall ((A Int) (B Int) (C Int) (D Int) (E Int) (F Int)) (not (and (and (and (and (and (INV_MAIN_0 A B C D E F) (not (>= A 1))) (not (>= C (- 1)))) (not (>= (+ F (+ D (- (* (- 1) C) A))) 0))) (= B (- 9))) (= E (- 9))))))
(assert (forall ((A Int) (B Int) (C Int) (D Int) (E Int) (F Int)) (not (and (and (and (and (INV_MAIN_0 A B C D E F) (not (>= A 1))) (not (<= F (- (+ C A) D)))) (= B (- 9))) (= E (- 9))))))
(assert (forall ((A Int) (B Int) (C Int) (D Int) (E Int) (F Int)) (not (and (and (and (and (INV_MAIN_0 A B C D E F) (not (>= A 1))) (not (>= (+ F (+ D (- (* (- 1) C) A))) 0))) (= B (- 9))) (= E (- 9))))))
(assert (forall ((A Int) (B Int) (C Int) (D Int) (E Int) (F Int) (G Int) (H Int) (I Int) (J Int) (K Int) (L Int) (M Int) (N Int) (O Int) (P Int) (Q Int) (R Int) (S Int) (T Int) (U Int) (V Int) (W Int) (X Int)) (not (and (and (and (and (and (and (and (and (and (and (and (and (and (and (and (and (and (and (and (and (and (and (and (and (and (INV_MAIN_0 A B C D E F) (INV_MAIN_0 G H I J K L)) (INV_MAIN_0 M N O P Q R)) (INV_MAIN_0 S T U V W X)) (not (and (= T (- 9)) (not (= R X))))) (not (and (= T (- 9)) (not (= I U))))) (not (>= S 1))) (not (= X U))) (not (= R (- 1)))) (= W T)) (= M S)) (= N T)) (= O U)) (= P V)) (= Q (- 9))) (= G S)) (= H (- 9))) (= J V)) (= K T)) (= L X)) (= A S)) (= B (- 9))) (= C I)) (= D V)) (= E (- 9))) (= F R)))))
(assert (forall ((A Int) (B Int) (C Int) (D Int) (E Int) (F Int) (G Int) (H Int) (I Int) (J Int) (K Int) (L Int) (M Int) (N Int) (O Int) (P Int) (Q Int) (R Int) (S Int) (T Int) (U Int) (V Int) (W Int) (X Int)) (not (and (and (and (and (and (and (and (and (and (and (and (and (and (and (and (and (and (and (and (and (and (and (and (and (and (INV_MAIN_0 A B C D E F) (INV_MAIN_0 G H I J K L)) (INV_MAIN_0 M N O P Q R)) (INV_MAIN_0 S T U V W X)) (not (and (= T (- 9)) (not (= R X))))) (not (and (= T (- 9)) (not (= I U))))) (not (>= S 1))) (not (= X U))) (not (= I R))) (= W T)) (= M S)) (= N T)) (= O U)) (= P V)) (= Q (- 9))) (= G S)) (= H (- 9))) (= J V)) (= K T)) (= L X)) (= A S)) (= B (- 9))) (= C I)) (= D V)) (= E (- 9))) (= F R)))))
(assert (forall ((A Int) (B Int) (C Int) (D Int) (E Int) (F Int) (G Int) (H Int) (I Int) (J Int) (K Int) (L Int) (M Int) (N Int) (O Int) (P Int) (Q Int) (R Int) (S Int) (T Int) (U Int) (V Int) (W Int) (X Int)) (not (and (and (and (and (and (and (and (and (and (and (and (and (and (and (and (and (and (and (and (and (and (and (and (and (and (INV_MAIN_0 A B C D E F) (INV_MAIN_0 G H I J K L)) (INV_MAIN_0 M N O P Q R)) (INV_MAIN_0 S T U V W X)) (not (and (= T (- 9)) (not (= R X))))) (not (and (= T (- 9)) (not (= I U))))) (not (>= S 1))) (not (= X U))) (not (= I (- 1)))) (= W T)) (= M S)) (= N T)) (= O U)) (= P V)) (= Q (- 9))) (= G S)) (= H (- 9))) (= J V)) (= K T)) (= L X)) (= A S)) (= B (- 9))) (= C I)) (= D V)) (= E (- 9))) (= F R)))))
(assert (forall ((A Int) (B Int) (C Int) (D Int) (E Int) (F Int) (G Int) (H Int) (I Int) (J Int) (K Int) (L Int) (M Int) (N Int) (O Int) (P Int) (Q Int) (R Int) (S Int) (T Int) (U Int) (V Int) (W Int) (X Int)) (not (and (and (and (and (and (and (and (and (and (and (and (and (and (and (and (and (and (and (and (and (and (and (and (and (INV_MAIN_0 A B C D E F) (INV_MAIN_0 G H I J K L)) (INV_MAIN_0 M N O P Q R)) (INV_MAIN_0 S T U V W X)) (not (and (= T (- 9)) (not (= R X))))) (not (and (= T (- 9)) (not (= I U))))) (not (>= S 1))) (not (= X U))) (= W T)) (= M S)) (= N T)) (= O U)) (= P V)) (= Q (- 9))) (= G S)) (= H (- 9))) (= J V)) (= K T)) (= L X)) (= A S)) (= B (- 9))) (= C I)) (= D V)) (= E (- 9))) (= F R)))))
(assert (forall ((A Int) (B Int) (C Int) (D Int) (E Int) (F Int)) (not (and (and (and (and (INV_MAIN_0 A B C D E F) (not (>= A 1))) (not (= F C))) (= B (- 9))) (= E (- 9))))))
(check-sat)
